104
2
41 83 91 36 36 71 77 45 28 89 50 75 19 8 84 65 73 88 67 60 18 48 86 24 48 39 45 90 2 12 74 21 20 
12 97 40 63 40 76 43 5 14 41 95 82 54 22 96 96 84 52 79 81 86 34 47 10 7 47 45 91 8 87 89 57 2 
2 2 2 2 1 2 2 2 1 1 1 2 2 1 1 1 1 2 1 1 2 1 1 2 1 1 1 2 1 2 1 2 1 